4 10 6 18 15 14 7 11 8 5 17 12 9 13 2 1 0 19 16 3  
4 10 6 18 15 14 7 11 8 5 0 12 9 19 2 17 1 13 16 3  
4 10 6 18 15 14 7 11 8 5 0 12 9 19 2 17 1 13 16 3  
4 15 18 10 6 14 7 8 11 5 17 12 9 19 2 1 0 13 16 3  
4 10 6 18 15 14 7 8 11 5 0 12 9 19 2 1 17 13 16 3  
4 10 18 14 6 15 17 8 11 12 0 16 9 19 5 2 7 3 1 13  
4 10 6 18 15 14 7 11 8 5 17 12 9 13 2 1 0 19 16 3  
4 10 18 14 6 15 17 8 11 16 0 12 9 19 5 2 7 1 13 3  
4 10 18 14 6 15 17 8 11 16 0 1 5 9 19 13 12 7 2 3  
4 10 18 14 6 15 0 8 11 17 12 5 9 19 2 1 7 13 16 3  
6 10 4 11 18 15 14 0 12 8 5 7 9 13 2 1 17 19 16 3  
4 10 6 18 15 14 7 8 11 17 1 0 12 5 9 19 2 13 16 3  
4 10 18 14 6 15 17 8 11 16 0 12 5 9 13 1 7 2 3 19  
4 10 18 14 6 15 7 8 11 5 17 12 9 19 2 0 1 13 16 3  
4 10 18 14 6 15 0 8 11 5 12 17 9 19 2 1 7 13 16 3  
4 10 18 14 6 11 17 8 15 16 0 12 9 19 5 2 7 3 1 13  
4 10 18 14 6 15 0 8 11 5 12 17 9 19 2 1 7 13 16 3  
4 10 18 14 6 15 17 8 11 7 16 5 9 13 12 2 0 1 3 19  
4 10 18 14 6 11 17 8 15 16 0 12 9 19 5 7 3 13 2 1  
4 10 18 14 6 11 17 8 15 16 0 12 9 19 5 2 7 3 1 13  
4 10 18 14 6 11 17 8 15 7 16 5 9 13 2 12 0 1 3 19  
4 10 18 14 6 11 17 8 15 12 0 9 19 16 5 2 7 3 13 1  
4 10 18 14 6 11 17 8 15 16 0 12 5 9 13 7 2 1 19 3  
